WARNING: for repeatability, setting FPU to use double precision
============================[ Problem Statistics ]=============================
|                                                                             |
|  Number of variables:            50                                         |
|  Number of clauses:             218                                         |
|  Parse time:                   0.00 s                                       |
|                                                                             |
============================[ Search Statistics ]==============================
| Conflicts |          ORIGINAL         |          LEARNT          | Progress |
|           |    Vars  Clauses Literals |    Limit  Clauses Lit/Cl |          |
===============================================================================
===============================================================================
restarts              : 1
conflicts             : 68             (41212 /sec)
decisions             : 83             (0.00 % random) (50303 /sec)
propagations          : 961            (582424 /sec)
conflict literals     : 288            (18.87 % deleted)
Memory used           : 20.00 MB
CPU time              : 0.00165 s

SATISFIABLE
